11782 8570 1 2 3 5 7 9 11 14 15 16 17 18 19 20 21 23 24 25 26 27 28 30 31 34 35 36 37 38 40 41 42 43 44 48 49 50 51 52 53 54 56 57 58 59 60 61 62 64 65 66 67 68 69 70 71 73 74 75 76 77 78 80 81 82 84 85 86 87 88 89 90 91 93 94 95 96 97 99 100 101 102 103 106 108 109 113 114 115 116 117 118 120 121 122 125 126 127 129 130 132 134 135 137 138 140 141 142 143 144 145 147 149 150 151 153 154 156 157 158 159 160 161 163 164 165 166 167 168 169 170 173 174 176 177 178 179 180 181 182 183 185 186 187 188 189 190 191 193 194 195 196 199 203 204 207 209 210 211 212 213 215 218 219 220 221 224 225 226 227 228 229 230 231 233 234 235 236 237 238 239 240 241 242 243 245 246 247 248 250 253 254 255 256 257 258 259 260 261 262 266 267 268 270 271 272 273 275 276 277 278 280 281 282 287 288 289 291 292 293 294 295 296 297 300 301 302 306 308 309 310 311 312 313 314 315 318 320 322 323 328 329 330 331 333 334 335 336 337 340 341 342 343 344 345 346 347 348 349 350 351 353 354 355 356 357 358 359 360 361 363 364 365 366 367 368 370 372 373 375 376 377 378 379 380 381 385 388 389 391 392 393 394 395 396 397 398 399 401 402 404 405 406 408 409 411 412 413 414 415 417 418 419 420 422 423 424 426 427 428 429 430 431 432 433 434 435 436 437 438 439 440 441 442 444 445 447 448 449 451 453 454 455 456 457 458 459 460 462 463 464 465 466 467 469 470 471 472 473 474 475 477 478 479 480 481 482 484 486 488 489 490 491 492 494 495 496 497 498 499 500 